c " random instance " 
p edges 200 4098
e 1 4
e 1 5
e 1 7
e 1 14
e 1 30
e 1 32
e 1 43
e 1 51
e 1 53
e 1 70
e 1 75
e 1 86
e 1 91
e 1 108
e 1 115
e 1 116
e 1 123
e 1 126
e 1 138
e 1 142
e 1 145
e 1 152
e 1 155
e 1 164
e 1 175
e 1 176
e 1 182
e 1 188
e 1 189
e 1 191
e 1 192
e 1 198
e 2 3
e 2 6
e 2 7
e 2 8
e 2 24
e 2 26
e 2 27
e 2 38
e 2 42
e 2 44
e 2 45
e 2 47
e 2 52
e 2 55
e 2 61
e 2 62
e 2 66
e 2 68
e 2 72
e 2 75
e 2 80
e 2 83
e 2 92
e 2 103
e 2 123
e 2 126
e 2 132
e 2 139
e 2 140
e 2 141
e 2 145
e 2 151
e 2 155
e 2 162
e 2 163
e 2 173
e 2 180
e 2 186
e 2 189
e 2 192
e 2 198
e 3 7
e 3 18
e 3 21
e 3 25
e 3 28
e 3 30
e 3 31
e 3 32
e 3 40
e 3 42
e 3 51
e 3 54
e 3 60
e 3 65
e 3 66
e 3 68
e 3 72
e 3 85
e 3 86
e 3 88
e 3 90
e 3 94
e 3 96
e 3 104
e 3 106
e 3 110
e 3 113
e 3 126
e 3 127
e 3 132
e 3 133
e 3 140
e 3 141
e 3 145
e 3 148
e 3 152
e 3 153
e 3 166
e 3 168
e 3 170
e 3 174
e 3 176
e 3 177
e 3 179
e 3 180
e 3 184
e 3 186
e 3 188
e 4 7
e 4 12
e 4 20
e 4 30
e 4 35
e 4 37
e 4 38
e 4 39
e 4 43
e 4 48
e 4 49
e 4 55
e 4 64
e 4 65
e 4 71
e 4 76
e 4 83
e 4 86
e 4 90
e 4 93
e 4 94
e 4 97
e 4 98
e 4 102
e 4 103
e 4 106
e 4 108
e 4 117
e 4 121
e 4 122
e 4 123
e 4 138
e 4 141
e 4 142
e 4 148
e 4 151
e 4 162
e 4 167
e 4 168
e 4 177
e 4 178
e 4 183
e 4 200
e 5 6
e 5 8
e 5 9
e 5 10
e 5 19
e 5 24
e 5 26
e 5 29
e 5 30
e 5 31
e 5 35
e 5 36
e 5 37
e 5 43
e 5 44
e 5 46
e 5 47
e 5 64
e 5 74
e 5 76
e 5 77
e 5 82
e 5 94
e 5 97
e 5 100
e 5 103
e 5 107
e 5 118
e 5 120
e 5 126
e 5 127
e 5 128
e 5 132
e 5 140
e 5 143
e 5 145
e 5 154
e 5 155
e 5 156
e 5 157
e 5 178
e 5 179
e 5 183
e 5 185
e 5 188
e 5 190
e 5 192
e 6 8
e 6 12
e 6 17
e 6 26
e 6 29
e 6 31
e 6 33
e 6 34
e 6 35
e 6 37
e 6 43
e 6 46
e 6 47
e 6 57
e 6 58
e 6 67
e 6 71
e 6 73
e 6 74
e 6 77
e 6 86
e 6 87
e 6 90
e 6 94
e 6 113
e 6 115
e 6 121
e 6 126
e 6 131
e 6 132
e 6 135
e 6 139
e 6 141
e 6 142
e 6 150
e 6 158
e 6 161
e 6 163
e 6 165
e 6 179
e 6 180
e 6 196
e 7 9
e 7 10
e 7 11
e 7 23
e 7 28
e 7 31
e 7 43
e 7 45
e 7 64
e 7 69
e 7 72
e 7 77
e 7 80
e 7 88
e 7 90
e 7 104
e 7 105
e 7 107
e 7 109
e 7 114
e 7 116
e 7 119
e 7 154
e 7 155
e 7 158
e 7 159
e 7 166
e 7 170
e 7 180
e 7 181
e 7 189
e 7 192
e 7 195
e 7 200
e 8 10
e 8 25
e 8 26
e 8 28
e 8 38
e 8 39
e 8 42
e 8 47
e 8 51
e 8 57
e 8 65
e 8 69
e 8 77
e 8 85
e 8 86
e 8 91
e 8 98
e 8 106
e 8 109
e 8 120
e 8 126
e 8 132
e 8 135
e 8 145
e 8 146
e 8 147
e 8 149
e 8 151
e 8 153
e 8 154
e 8 155
e 8 166
e 8 171
e 8 174
e 8 176
e 8 179
e 8 188
e 8 190
e 8 195
e 8 199
e 9 12
e 9 14
e 9 15
e 9 29
e 9 30
e 9 41
e 9 43
e 9 57
e 9 58
e 9 61
e 9 64
e 9 66
e 9 77
e 9 79
e 9 85
e 9 89
e 9 96
e 9 113
e 9 115
e 9 131
e 9 132
e 9 135
e 9 139
e 9 142
e 9 145
e 9 146
e 9 148
e 9 150
e 9 152
e 9 156
e 9 159
e 9 167
e 9 168
e 9 176
e 9 177
e 9 178
e 9 181
e 9 187
e 9 196
e 10 13
e 10 16
e 10 26
e 10 30
e 10 36
e 10 39
e 10 43
e 10 52
e 10 55
e 10 57
e 10 58
e 10 61
e 10 62
e 10 72
e 10 78
e 10 82
e 10 83
e 10 90
e 10 95
e 10 98
e 10 99
e 10 102
e 10 105
e 10 109
e 10 115
e 10 131
e 10 137
e 10 139
e 10 142
e 10 148
e 10 151
e 10 160
e 10 164
e 10 168
e 10 173
e 10 175
e 10 188
e 10 189
e 10 192
e 10 193
e 10 197
e 10 198
e 11 24
e 11 26
e 11 33
e 11 39
e 11 40
e 11 42
e 11 47
e 11 49
e 11 51
e 11 52
e 11 56
e 11 57
e 11 67
e 11 73
e 11 74
e 11 85
e 11 95
e 11 97
e 11 98
e 11 99
e 11 100
e 11 104
e 11 113
e 11 114
e 11 116
e 11 118
e 11 120
e 11 124
e 11 125
e 11 127
e 11 128
e 11 135
e 11 137
e 11 143
e 11 145
e 11 146
e 11 147
e 11 148
e 11 151
e 11 152
e 11 153
e 11 154
e 11 157
e 11 162
e 11 173
e 11 178
e 11 179
e 11 182
e 11 185
e 11 187
e 11 188
e 11 190
e 11 193
e 11 194
e 11 198
e 12 21
e 12 37
e 12 43
e 12 47
e 12 48
e 12 49
e 12 61
e 12 67
e 12 70
e 12 74
e 12 86
e 12 96
e 12 98
e 12 99
e 12 101
e 12 114
e 12 124
e 12 125
e 12 127
e 12 130
e 12 146
e 12 148
e 12 155
e 12 167
e 12 179
e 12 180
e 12 183
e 12 184
e 12 190
e 12 195
e 12 198
e 13 15
e 13 21
e 13 23
e 13 27
e 13 40
e 13 46
e 13 54
e 13 58
e 13 60
e 13 66
e 13 70
e 13 71
e 13 73
e 13 77
e 13 80
e 13 85
e 13 86
e 13 89
e 13 90
e 13 91
e 13 94
e 13 99
e 13 104
e 13 110
e 13 115
e 13 117
e 13 128
e 13 133
e 13 134
e 13 143
e 13 144
e 13 148
e 13 151
e 13 155
e 13 157
e 13 162
e 13 167
e 13 169
e 13 172
e 13 180
e 13 183
e 13 185
e 13 186
e 13 187
e 13 190
e 13 194
e 14 15
e 14 17
e 14 20
e 14 21
e 14 23
e 14 31
e 14 36
e 14 41
e 14 42
e 14 44
e 14 48
e 14 53
e 14 56
e 14 58
e 14 59
e 14 60
e 14 72
e 14 73
e 14 80
e 14 84
e 14 87
e 14 94
e 14 99
e 14 102
e 14 108
e 14 109
e 14 110
e 14 113
e 14 121
e 14 124
e 14 127
e 14 134
e 14 139
e 14 142
e 14 147
e 14 154
e 14 157
e 14 159
e 14 163
e 14 165
e 14 167
e 14 170
e 14 178
e 14 182
e 14 189
e 14 193
e 14 195
e 14 196
e 15 30
e 15 31
e 15 44
e 15 47
e 15 51
e 15 59
e 15 64
e 15 65
e 15 71
e 15 77
e 15 78
e 15 86
e 15 87
e 15 102
e 15 108
e 15 109
e 15 122
e 15 125
e 15 134
e 15 142
e 15 152
e 15 153
e 15 155
e 15 157
e 15 163
e 15 164
e 15 166
e 15 170
e 15 176
e 15 177
e 15 181
e 15 183
e 15 186
e 15 187
e 15 188
e 15 193
e 15 196
e 16 20
e 16 24
e 16 25
e 16 30
e 16 34
e 16 37
e 16 49
e 16 50
e 16 59
e 16 61
e 16 74
e 16 81
e 16 83
e 16 84
e 16 90
e 16 92
e 16 95
e 16 107
e 16 112
e 16 115
e 16 118
e 16 120
e 16 123
e 16 126
e 16 128
e 16 132
e 16 133
e 16 135
e 16 150
e 16 152
e 16 157
e 16 163
e 16 168
e 16 171
e 16 172
e 16 173
e 16 174
e 16 190
e 16 200
e 17 18
e 17 29
e 17 30
e 17 38
e 17 46
e 17 50
e 17 53
e 17 57
e 17 60
e 17 61
e 17 66
e 17 70
e 17 74
e 17 80
e 17 83
e 17 86
e 17 88
e 17 90
e 17 95
e 17 104
e 17 108
e 17 117
e 17 128
e 17 139
e 17 140
e 17 143
e 17 146
e 17 155
e 17 158
e 17 163
e 17 164
e 17 167
e 17 178
e 17 187
e 17 193
e 17 195
e 17 196
e 17 199
e 18 20
e 18 32
e 18 38
e 18 39
e 18 41
e 18 42
e 18 49
e 18 51
e 18 53
e 18 54
e 18 58
e 18 59
e 18 63
e 18 64
e 18 65
e 18 68
e 18 70
e 18 75
e 18 76
e 18 77
e 18 82
e 18 83
e 18 92
e 18 99
e 18 105
e 18 106
e 18 108
e 18 127
e 18 136
e 18 139
e 18 147
e 18 153
e 18 163
e 18 165
e 18 172
e 18 173
e 18 177
e 18 180
e 18 184
e 18 190
e 18 192
e 18 199
e 18 200
e 19 26
e 19 29
e 19 46
e 19 48
e 19 50
e 19 52
e 19 56
e 19 61
e 19 62
e 19 63
e 19 64
e 19 69
e 19 74
e 19 84
e 19 88
e 19 89
e 19 91
e 19 102
e 19 111
e 19 112
e 19 114
e 19 115
e 19 116
e 19 118
e 19 122
e 19 128
e 19 129
e 19 138
e 19 156
e 19 157
e 19 160
e 19 170
e 19 177
e 19 180
e 19 187
e 19 188
e 19 190
e 19 191
e 19 194
e 19 200
e 20 22
e 20 24
e 20 26
e 20 37
e 20 39
e 20 45
e 20 50
e 20 53
e 20 79
e 20 83
e 20 94
e 20 97
e 20 100
e 20 101
e 20 104
e 20 106
e 20 120
e 20 125
e 20 126
e 20 127
e 20 135
e 20 138
e 20 140
e 20 151
e 20 168
e 20 173
e 20 178
e 20 200
e 21 25
e 21 26
e 21 35
e 21 36
e 21 43
e 21 46
e 21 56
e 21 66
e 21 75
e 21 88
e 21 89
e 21 93
e 21 98
e 21 100
e 21 104
e 21 105
e 21 107
e 21 108
e 21 110
e 21 113
e 21 115
e 21 119
e 21 122
e 21 127
e 21 130
e 21 134
e 21 135
e 21 137
e 21 141
e 21 146
e 21 149
e 21 156
e 21 165
e 21 166
e 21 173
e 21 177
e 21 182
e 21 186
e 21 190
e 21 193
e 21 195
e 21 196
e 21 197
e 22 27
e 22 29
e 22 35
e 22 36
e 22 39
e 22 53
e 22 54
e 22 57
e 22 58
e 22 59
e 22 61
e 22 62
e 22 67
e 22 82
e 22 85
e 22 87
e 22 88
e 22 93
e 22 100
e 22 101
e 22 104
e 22 107
e 22 111
e 22 117
e 22 118
e 22 123
e 22 132
e 22 143
e 22 147
e 22 149
e 22 153
e 22 161
e 22 165
e 22 167
e 22 169
e 22 170
e 22 172
e 22 173
e 22 175
e 22 176
e 22 185
e 22 186
e 22 189
e 22 191
e 22 196
e 22 198
e 23 30
e 23 35
e 23 43
e 23 44
e 23 46
e 23 48
e 23 51
e 23 53
e 23 56
e 23 60
e 23 63
e 23 64
e 23 71
e 23 73
e 23 74
e 23 78
e 23 85
e 23 86
e 23 103
e 23 107
e 23 116
e 23 130
e 23 132
e 23 140
e 23 150
e 23 151
e 23 155
e 23 156
e 23 178
e 23 194
e 23 196
e 23 197
e 24 25
e 24 27
e 24 33
e 24 35
e 24 38
e 24 46
e 24 48
e 24 57
e 24 58
e 24 60
e 24 66
e 24 68
e 24 72
e 24 75
e 24 78
e 24 80
e 24 82
e 24 85
e 24 92
e 24 98
e 24 99
e 24 103
e 24 105
e 24 115
e 24 136
e 24 141
e 24 142
e 24 148
e 24 150
e 24 153
e 24 157
e 24 171
e 24 174
e 24 180
e 24 181
e 24 184
e 24 192
e 24 198
e 25 26
e 25 40
e 25 42
e 25 53
e 25 60
e 25 62
e 25 68
e 25 71
e 25 72
e 25 73
e 25 74
e 25 78
e 25 80
e 25 86
e 25 104
e 25 109
e 25 113
e 25 118
e 25 119
e 25 120
e 25 122
e 25 123
e 25 124
e 25 126
e 25 129
e 25 136
e 25 139
e 25 147
e 25 153
e 25 157
e 25 161
e 25 165
e 25 166
e 25 167
e 25 170
e 25 174
e 25 190
e 25 194
e 26 27
e 26 29
e 26 31
e 26 32
e 26 36
e 26 37
e 26 44
e 26 51
e 26 54
e 26 63
e 26 67
e 26 70
e 26 71
e 26 79
e 26 92
e 26 94
e 26 95
e 26 96
e 26 97
e 26 100
e 26 104
e 26 105
e 26 107
e 26 108
e 26 113
e 26 115
e 26 116
e 26 118
e 26 120
e 26 139
e 26 140
e 26 142
e 26 143
e 26 145
e 26 146
e 26 147
e 26 151
e 26 154
e 26 160
e 26 162
e 26 165
e 26 170
e 26 174
e 26 180
e 26 186
e 27 33
e 27 37
e 27 40
e 27 47
e 27 51
e 27 59
e 27 62
e 27 64
e 27 66
e 27 70
e 27 71
e 27 78
e 27 81
e 27 90
e 27 91
e 27 92
e 27 93
e 27 100
e 27 105
e 27 109
e 27 110
e 27 111
e 27 113
e 27 116
e 27 119
e 27 122
e 27 123
e 27 124
e 27 132
e 27 133
e 27 147
e 27 150
e 27 152
e 27 156
e 27 165
e 27 176
e 27 181
e 27 182
e 27 185
e 27 187
e 27 194
e 27 198
e 28 32
e 28 34
e 28 35
e 28 41
e 28 42
e 28 47
e 28 48
e 28 55
e 28 59
e 28 61
e 28 65
e 28 67
e 28 69
e 28 70
e 28 82
e 28 92
e 28 96
e 28 97
e 28 110
e 28 113
e 28 116
e 28 122
e 28 123
e 28 124
e 28 130
e 28 141
e 28 145
e 28 156
e 28 159
e 28 170
e 28 174
e 28 178
e 28 180
e 28 181
e 28 183
e 28 189
e 28 197
e 29 32
e 29 33
e 29 36
e 29 52
e 29 56
e 29 57
e 29 59
e 29 61
e 29 62
e 29 67
e 29 70
e 29 77
e 29 84
e 29 104
e 29 107
e 29 111
e 29 113
e 29 118
e 29 122
e 29 123
e 29 125
e 29 130
e 29 132
e 29 134
e 29 140
e 29 158
e 29 165
e 29 167
e 29 171
e 29 172
e 29 185
e 29 187
e 29 193
e 29 195
e 30 36
e 30 40
e 30 41
e 30 48
e 30 50
e 30 55
e 30 78
e 30 81
e 30 91
e 30 96
e 30 97
e 30 102
e 30 113
e 30 115
e 30 121
e 30 145
e 30 149
e 30 150
e 30 164
e 30 167
e 30 172
e 30 174
e 30 177
e 30 182
e 30 191
e 30 192
e 30 195
e 31 36
e 31 40
e 31 43
e 31 48
e 31 55
e 31 57
e 31 58
e 31 60
e 31 63
e 31 67
e 31 79
e 31 81
e 31 83
e 31 87
e 31 93
e 31 95
e 31 100
e 31 101
e 31 106
e 31 107
e 31 108
e 31 110
e 31 113
e 31 126
e 31 132
e 31 140
e 31 149
e 31 158
e 31 173
e 31 178
e 31 180
e 31 181
e 31 182
e 31 192
e 32 33
e 32 35
e 32 36
e 32 38
e 32 44
e 32 49
e 32 53
e 32 55
e 32 63
e 32 64
e 32 67
e 32 69
e 32 70
e 32 73
e 32 77
e 32 82
e 32 83
e 32 87
e 32 89
e 32 92
e 32 100
e 32 103
e 32 112
e 32 124
e 32 126
e 32 131
e 32 133
e 32 134
e 32 136
e 32 139
e 32 152
e 32 157
e 32 158
e 32 159
e 32 179
e 32 181
e 32 183
e 32 185
e 32 188
e 32 192
e 32 193
e 32 198
e 33 38
e 33 41
e 33 42
e 33 48
e 33 55
e 33 58
e 33 61
e 33 68
e 33 82
e 33 94
e 33 104
e 33 105
e 33 114
e 33 138
e 33 141
e 33 147
e 33 152
e 33 157
e 33 159
e 33 167
e 33 172
e 33 184
e 33 185
e 33 187
e 33 189
e 33 194
e 34 42
e 34 48
e 34 50
e 34 52
e 34 57
e 34 61
e 34 62
e 34 63
e 34 69
e 34 70
e 34 74
e 34 75
e 34 81
e 34 89
e 34 90
e 34 94
e 34 100
e 34 101
e 34 110
e 34 116
e 34 117
e 34 125
e 34 132
e 34 142
e 34 149
e 34 154
e 34 166
e 34 167
e 34 173
e 34 174
e 34 177
e 34 181
e 34 184
e 34 186
e 34 192
e 34 193
e 34 196
e 34 197
e 35 37
e 35 39
e 35 45
e 35 48
e 35 53
e 35 59
e 35 60
e 35 62
e 35 64
e 35 66
e 35 69
e 35 81
e 35 84
e 35 85
e 35 90
e 35 93
e 35 96
e 35 97
e 35 98
e 35 103
e 35 107
e 35 109
e 35 111
e 35 112
e 35 113
e 35 117
e 35 119
e 35 124
e 35 129
e 35 131
e 35 134
e 35 141
e 35 149
e 35 150
e 35 156
e 35 158
e 35 160
e 35 162
e 35 167
e 35 173
e 35 179
e 35 183
e 35 185
e 35 186
e 35 194
e 36 37
e 36 39
e 36 43
e 36 51
e 36 52
e 36 63
e 36 69
e 36 77
e 36 83
e 36 88
e 36 90
e 36 102
e 36 105
e 36 111
e 36 112
e 36 115
e 36 130
e 36 131
e 36 133
e 36 144
e 36 153
e 36 160
e 36 166
e 36 168
e 36 172
e 36 173
e 36 185
e 36 187
e 36 189
e 36 193
e 36 197
e 36 198
e 37 38
e 37 41
e 37 42
e 37 45
e 37 47
e 37 63
e 37 67
e 37 70
e 37 72
e 37 73
e 37 75
e 37 77
e 37 81
e 37 85
e 37 94
e 37 96
e 37 102
e 37 105
e 37 106
e 37 107
e 37 115
e 37 119
e 37 122
e 37 123
e 37 130
e 37 135
e 37 140
e 37 142
e 37 144
e 37 148
e 37 160
e 37 163
e 37 164
e 37 174
e 37 176
e 37 183
e 37 187
e 37 188
e 37 192
e 37 197
e 37 198
e 38 40
e 38 46
e 38 49
e 38 56
e 38 57
e 38 59
e 38 60
e 38 75
e 38 80
e 38 82
e 38 83
e 38 97
e 38 103
e 38 108
e 38 111
e 38 113
e 38 123
e 38 133
e 38 144
e 38 148
e 38 152
e 38 156
e 38 158
e 38 180
e 38 181
e 38 185
e 38 188
e 38 194
e 38 197
e 38 200
e 39 44
e 39 51
e 39 53
e 39 59
e 39 62
e 39 63
e 39 73
e 39 74
e 39 76
e 39 77
e 39 78
e 39 82
e 39 84
e 39 85
e 39 87
e 39 91
e 39 92
e 39 98
e 39 108
e 39 118
e 39 122
e 39 131
e 39 136
e 39 149
e 39 152
e 39 155
e 39 162
e 39 168
e 39 171
e 39 173
e 39 185
e 39 190
e 40 41
e 40 42
e 40 43
e 40 44
e 40 47
e 40 55
e 40 57
e 40 58
e 40 62
e 40 64
e 40 69
e 40 79
e 40 80
e 40 87
e 40 91
e 40 103
e 40 112
e 40 117
e 40 120
e 40 133
e 40 141
e 40 149
e 40 152
e 40 170
e 40 177
e 40 184
e 40 189
e 40 191
e 40 192
e 41 42
e 41 43
e 41 54
e 41 58
e 41 59
e 41 60
e 41 61
e 41 76
e 41 81
e 41 89
e 41 92
e 41 99
e 41 104
e 41 106
e 41 115
e 41 116
e 41 131
e 41 147
e 41 148
e 41 165
e 41 169
e 41 176
e 41 177
e 41 178
e 41 180
e 41 189
e 41 193
e 41 199
e 42 48
e 42 55
e 42 58
e 42 61
e 42 69
e 42 73
e 42 78
e 42 80
e 42 81
e 42 82
e 42 84
e 42 102
e 42 105
e 42 108
e 42 110
e 42 111
e 42 114
e 42 122
e 42 127
e 42 130
e 42 131
e 42 132
e 42 133
e 42 138
e 42 141
e 42 145
e 42 147
e 42 150
e 42 158
e 42 161
e 42 162
e 42 165
e 42 169
e 42 176
e 42 179
e 42 181
e 42 183
e 42 192
e 42 193
e 42 199
e 43 44
e 43 60
e 43 65
e 43 72
e 43 76
e 43 77
e 43 82
e 43 88
e 43 96
e 43 105
e 43 106
e 43 110
e 43 112
e 43 114
e 43 130
e 43 137
e 43 145
e 43 149
e 43 158
e 43 159
e 43 163
e 43 168
e 43 169
e 43 175
e 43 188
e 43 195
e 44 46
e 44 53
e 44 57
e 44 58
e 44 62
e 44 63
e 44 64
e 44 65
e 44 68
e 44 77
e 44 84
e 44 88
e 44 93
e 44 94
e 44 96
e 44 101
e 44 102
e 44 104
e 44 106
e 44 110
e 44 111
e 44 121
e 44 130
e 44 131
e 44 132
e 44 134
e 44 135
e 44 141
e 44 142
e 44 146
e 44 150
e 44 152
e 44 160
e 44 172
e 44 173
e 44 185
e 44 195
e 44 197
e 44 200
e 45 48
e 45 49
e 45 51
e 45 54
e 45 58
e 45 62
e 45 68
e 45 69
e 45 74
e 45 81
e 45 87
e 45 98
e 45 102
e 45 117
e 45 123
e 45 128
e 45 131
e 45 132
e 45 133
e 45 134
e 45 140
e 45 141
e 45 142
e 45 144
e 45 149
e 45 151
e 45 152
e 45 160
e 45 166
e 45 179
e 45 194
e 45 199
e 45 200
e 46 48
e 46 53
e 46 55
e 46 57
e 46 59
e 46 73
e 46 74
e 46 88
e 46 96
e 46 97
e 46 102
e 46 105
e 46 112
e 46 118
e 46 124
e 46 127
e 46 133
e 46 140
e 46 145
e 46 146
e 46 158
e 46 159
e 46 169
e 46 175
e 46 193
e 46 200
e 47 48
e 47 50
e 47 52
e 47 54
e 47 59
e 47 62
e 47 63
e 47 65
e 47 67
e 47 68
e 47 74
e 47 78
e 47 79
e 47 84
e 47 86
e 47 87
e 47 95
e 47 96
e 47 99
e 47 109
e 47 113
e 47 125
e 47 134
e 47 136
e 47 137
e 47 141
e 47 143
e 47 144
e 47 161
e 47 163
e 47 168
e 47 176
e 47 177
e 47 178
e 47 180
e 47 185
e 47 188
e 47 192
e 47 196
e 47 199
e 47 200
e 48 68
e 48 70
e 48 77
e 48 88
e 48 90
e 48 91
e 48 95
e 48 102
e 48 109
e 48 124
e 48 127
e 48 139
e 48 141
e 48 142
e 48 143
e 48 144
e 48 148
e 48 151
e 48 156
e 48 161
e 48 170
e 48 179
e 48 187
e 48 189
e 48 190
e 48 192
e 48 193
e 48 196
e 48 198
e 48 199
e 49 52
e 49 53
e 49 57
e 49 72
e 49 73
e 49 75
e 49 79
e 49 81
e 49 83
e 49 84
e 49 91
e 49 92
e 49 101
e 49 104
e 49 105
e 49 108
e 49 117
e 49 123
e 49 127
e 49 130
e 49 131
e 49 132
e 49 146
e 49 155
e 49 157
e 49 158
e 49 171
e 49 182
e 49 186
e 49 193
e 49 194
e 50 51
e 50 62
e 50 67
e 50 69
e 50 77
e 50 80
e 50 81
e 50 88
e 50 92
e 50 96
e 50 100
e 50 104
e 50 108
e 50 110
e 50 112
e 50 114
e 50 129
e 50 138
e 50 142
e 50 146
e 50 152
e 50 156
e 50 161
e 50 162
e 50 164
e 50 173
e 50 178
e 50 181
e 50 196
e 51 52
e 51 58
e 51 60
e 51 64
e 51 66
e 51 69
e 51 70
e 51 74
e 51 75
e 51 76
e 51 77
e 51 89
e 51 93
e 51 94
e 51 97
e 51 98
e 51 104
e 51 105
e 51 108
e 51 109
e 51 112
e 51 131
e 51 139
e 51 140
e 51 142
e 51 147
e 51 150
e 51 151
e 51 153
e 51 154
e 51 159
e 51 161
e 51 165
e 51 166
e 51 168
e 51 178
e 51 181
e 51 185
e 51 190
e 51 194
e 52 53
e 52 54
e 52 58
e 52 68
e 52 75
e 52 89
e 52 118
e 52 126
e 52 133
e 52 134
e 52 136
e 52 139
e 52 147
e 52 152
e 52 155
e 52 157
e 52 163
e 52 164
e 52 166
e 52 172
e 52 176
e 52 183
e 52 191
e 52 193
e 52 196
e 53 59
e 53 63
e 53 68
e 53 77
e 53 78
e 53 89
e 53 91
e 53 92
e 53 93
e 53 100
e 53 101
e 53 110
e 53 111
e 53 114
e 53 116
e 53 119
e 53 121
e 53 124
e 53 127
e 53 132
e 53 138
e 53 146
e 53 148
e 53 149
e 53 158
e 53 161
e 53 167
e 53 170
e 53 174
e 53 185
e 53 193
e 53 194
e 53 199
e 53 200
e 54 59
e 54 69
e 54 70
e 54 72
e 54 83
e 54 87
e 54 90
e 54 114
e 54 117
e 54 120
e 54 122
e 54 123
e 54 131
e 54 132
e 54 138
e 54 142
e 54 146
e 54 147
e 54 152
e 54 153
e 54 154
e 54 162
e 54 180
e 54 189
e 54 192
e 54 193
e 54 198
e 55 72
e 55 74
e 55 75
e 55 79
e 55 84
e 55 88
e 55 91
e 55 102
e 55 103
e 55 108
e 55 110
e 55 111
e 55 117
e 55 124
e 55 143
e 55 148
e 55 149
e 55 155
e 55 162
e 55 171
e 55 178
e 55 180
e 55 183
e 55 188
e 55 193
e 56 64
e 56 76
e 56 78
e 56 79
e 56 81
e 56 83
e 56 97
e 56 103
e 56 106
e 56 108
e 56 109
e 56 113
e 56 114
e 56 115
e 56 117
e 56 119
e 56 134
e 56 143
e 56 164
e 56 169
e 56 176
e 56 179
e 56 180
e 56 181
e 56 188
e 56 190
e 56 193
e 56 195
e 56 196
e 57 59
e 57 61
e 57 63
e 57 75
e 57 76
e 57 77
e 57 81
e 57 86
e 57 87
e 57 89
e 57 92
e 57 100
e 57 113
e 57 115
e 57 116
e 57 121
e 57 126
e 57 128
e 57 133
e 57 137
e 57 138
e 57 145
e 57 151
e 57 153
e 57 161
e 57 174
e 57 175
e 57 190
e 58 64
e 58 70
e 58 75
e 58 83
e 58 94
e 58 99
e 58 104
e 58 106
e 58 107
e 58 111
e 58 112
e 58 115
e 58 121
e 58 127
e 58 133
e 58 134
e 58 136
e 58 151
e 58 157
e 58 161
e 58 167
e 58 168
e 58 171
e 58 173
e 58 179
e 58 190
e 58 194
e 59 60
e 59 75
e 59 84
e 59 90
e 59 91
e 59 94
e 59 96
e 59 102
e 59 104
e 59 107
e 59 109
e 59 121
e 59 130
e 59 138
e 59 154
e 59 158
e 59 172
e 59 176
e 59 182
e 59 191
e 59 195
e 59 200
e 60 76
e 60 85
e 60 88
e 60 100
e 60 101
e 60 102
e 60 103
e 60 109
e 60 126
e 60 131
e 60 132
e 60 133
e 60 138
e 60 143
e 60 156
e 60 157
e 60 159
e 60 165
e 60 166
e 60 167
e 60 175
e 60 184
e 60 189
e 60 197
e 61 62
e 61 64
e 61 66
e 61 79
e 61 88
e 61 105
e 61 109
e 61 115
e 61 116
e 61 121
e 61 123
e 61 126
e 61 127
e 61 129
e 61 137
e 61 138
e 61 139
e 61 141
e 61 143
e 61 155
e 61 172
e 61 176
e 61 185
e 61 189
e 61 193
e 61 196
e 61 197
e 61 199
e 62 64
e 62 68
e 62 73
e 62 74
e 62 82
e 62 86
e 62 90
e 62 92
e 62 93
e 62 95
e 62 104
e 62 115
e 62 119
e 62 121
e 62 134
e 62 136
e 62 144
e 62 157
e 62 161
e 62 171
e 62 175
e 62 178
e 62 183
e 62 185
e 62 187
e 62 190
e 62 199
e 63 69
e 63 73
e 63 82
e 63 88
e 63 90
e 63 104
e 63 106
e 63 119
e 63 126
e 63 127
e 63 134
e 63 136
e 63 137
e 63 141
e 63 149
e 63 151
e 63 153
e 63 154
e 63 155
e 63 164
e 63 174
e 63 182
e 63 186
e 63 192
e 63 196
e 63 197
e 63 199
e 64 65
e 64 68
e 64 73
e 64 79
e 64 93
e 64 96
e 64 99
e 64 100
e 64 101
e 64 106
e 64 110
e 64 113
e 64 114
e 64 115
e 64 116
e 64 122
e 64 157
e 64 172
e 64 181
e 64 182
e 64 184
e 64 187
e 64 193
e 64 194
e 64 198
e 64 199
e 65 67
e 65 70
e 65 74
e 65 78
e 65 83
e 65 92
e 65 96
e 65 104
e 65 116
e 65 140
e 65 141
e 65 143
e 65 157
e 65 161
e 65 164
e 65 169
e 65 171
e 65 177
e 65 178
e 65 186
e 65 187
e 65 192
e 66 72
e 66 73
e 66 89
e 66 93
e 66 94
e 66 95
e 66 97
e 66 98
e 66 105
e 66 111
e 66 116
e 66 118
e 66 119
e 66 122
e 66 124
e 66 126
e 66 131
e 66 135
e 66 138
e 66 142
e 66 143
e 66 144
e 66 161
e 66 164
e 66 165
e 66 169
e 66 177
e 66 180
e 66 184
e 66 189
e 66 192
e 66 196
e 66 198
e 67 71
e 67 80
e 67 86
e 67 91
e 67 95
e 67 97
e 67 101
e 67 109
e 67 110
e 67 118
e 67 119
e 67 120
e 67 121
e 67 124
e 67 125
e 67 139
e 67 148
e 67 149
e 67 151
e 67 166
e 67 170
e 67 171
e 67 176
e 67 187
e 67 190
e 67 194
e 67 196
e 68 70
e 68 72
e 68 73
e 68 79
e 68 83
e 68 90
e 68 94
e 68 96
e 68 107
e 68 110
e 68 112
e 68 121
e 68 126
e 68 128
e 68 131
e 68 132
e 68 133
e 68 144
e 68 145
e 68 147
e 68 150
e 68 156
e 68 158
e 68 160
e 68 162
e 68 168
e 68 170
e 68 175
e 68 191
e 68 193
e 68 194
e 69 72
e 69 84
e 69 88
e 69 89
e 69 90
e 69 93
e 69 101
e 69 103
e 69 109
e 69 117
e 69 126
e 69 129
e 69 138
e 69 144
e 69 150
e 69 154
e 69 161
e 69 164
e 69 171
e 69 175
e 69 179
e 69 183
e 69 192
e 69 193
e 69 196
e 70 75
e 70 77
e 70 78
e 70 92
e 70 93
e 70 95
e 70 97
e 70 101
e 70 105
e 70 109
e 70 110
e 70 115
e 70 118
e 70 120
e 70 131
e 70 134
e 70 141
e 70 152
e 70 157
e 70 159
e 70 165
e 70 170
e 70 172
e 70 173
e 70 174
e 70 180
e 70 196
e 71 73
e 71 74
e 71 82
e 71 83
e 71 89
e 71 92
e 71 97
e 71 98
e 71 101
e 71 102
e 71 105
e 71 106
e 71 108
e 71 119
e 71 129
e 71 137
e 71 140
e 71 149
e 71 158
e 71 160
e 71 165
e 71 166
e 71 169
e 71 174
e 71 184
e 71 190
e 71 194
e 71 196
e 71 197
e 72 74
e 72 99
e 72 111
e 72 112
e 72 114
e 72 115
e 72 121
e 72 122
e 72 136
e 72 143
e 72 145
e 72 147
e 72 149
e 72 164
e 72 183
e 72 188
e 72 194
e 72 197
e 72 199
e 72 200
e 73 74
e 73 75
e 73 77
e 73 79
e 73 83
e 73 86
e 73 94
e 73 101
e 73 104
e 73 121
e 73 127
e 73 128
e 73 131
e 73 139
e 73 142
e 73 143
e 73 145
e 73 149
e 73 156
e 73 166
e 73 171
e 73 174
e 73 183
e 73 187
e 73 194
e 73 196
e 73 197
e 74 81
e 74 83
e 74 84
e 74 85
e 74 87
e 74 91
e 74 92
e 74 93
e 74 98
e 74 105
e 74 110
e 74 116
e 74 127
e 74 133
e 74 138
e 74 140
e 74 146
e 74 147
e 74 149
e 74 154
e 74 156
e 74 159
e 74 171
e 74 172
e 74 176
e 74 185
e 74 187
e 74 189
e 74 190
e 74 191
e 75 79
e 75 80
e 75 82
e 75 86
e 75 87
e 75 89
e 75 91
e 75 92
e 75 94
e 75 100
e 75 111
e 75 124
e 75 137
e 75 146
e 75 161
e 75 162
e 75 163
e 75 164
e 75 167
e 75 168
e 75 172
e 75 183
e 75 196
e 76 84
e 76 86
e 76 100
e 76 101
e 76 108
e 76 113
e 76 115
e 76 118
e 76 129
e 76 130
e 76 132
e 76 137
e 76 140
e 76 149
e 76 155
e 76 156
e 76 165
e 76 171
e 76 175
e 76 176
e 76 179
e 76 180
e 76 190
e 76 195
e 76 197
e 77 80
e 77 84
e 77 89
e 77 97
e 77 99
e 77 107
e 77 110
e 77 111
e 77 122
e 77 124
e 77 125
e 77 129
e 77 133
e 77 137
e 77 146
e 77 154
e 77 162
e 77 175
e 77 176
e 77 196
e 77 198
e 78 80
e 78 85
e 78 86
e 78 90
e 78 92
e 78 94
e 78 95
e 78 104
e 78 106
e 78 108
e 78 111
e 78 129
e 78 132
e 78 133
e 78 136
e 78 138
e 78 146
e 78 148
e 78 156
e 78 165
e 78 170
e 78 175
e 78 181
e 78 184
e 78 185
e 78 187
e 78 188
e 78 192
e 79 82
e 79 84
e 79 91
e 79 97
e 79 98
e 79 99
e 79 101
e 79 102
e 79 103
e 79 112
e 79 122
e 79 135
e 79 136
e 79 139
e 79 146
e 79 160
e 79 164
e 79 168
e 79 172
e 79 180
e 79 182
e 79 186
e 79 191
e 79 193
e 79 194
e 79 197
e 80 81
e 80 84
e 80 85
e 80 86
e 80 88
e 80 99
e 80 101
e 80 104
e 80 108
e 80 111
e 80 113
e 80 116
e 80 123
e 80 124
e 80 137
e 80 138
e 80 144
e 80 147
e 80 148
e 80 152
e 80 153
e 80 162
e 80 169
e 80 171
e 80 185
e 80 186
e 80 190
e 80 195
e 80 198
e 80 199
e 80 200
e 81 86
e 81 88
e 81 90
e 81 98
e 81 100
e 81 102
e 81 104
e 81 110
e 81 135
e 81 142
e 81 144
e 81 157
e 81 173
e 81 177
e 81 178
e 81 184
e 81 193
e 81 196
e 81 199
e 82 85
e 82 97
e 82 102
e 82 103
e 82 119
e 82 123
e 82 124
e 82 136
e 82 140
e 82 148
e 82 155
e 82 165
e 82 179
e 82 183
e 82 187
e 82 188
e 82 189
e 82 192
e 82 195
e 82 198
e 83 86
e 83 94
e 83 96
e 83 97
e 83 99
e 83 102
e 83 105
e 83 119
e 83 129
e 83 131
e 83 132
e 83 133
e 83 136
e 83 137
e 83 138
e 83 145
e 83 147
e 83 151
e 83 160
e 83 162
e 83 168
e 83 176
e 83 179
e 83 193
e 83 197
e 84 95
e 84 96
e 84 99
e 84 104
e 84 112
e 84 118
e 84 130
e 84 131
e 84 133
e 84 150
e 84 157
e 84 161
e 84 163
e 84 169
e 84 174
e 84 181
e 85 87
e 85 88
e 85 94
e 85 95
e 85 96
e 85 98
e 85 101
e 85 108
e 85 120
e 85 125
e 85 131
e 85 139
e 85 142
e 85 144
e 85 145
e 85 154
e 85 165
e 85 175
e 85 177
e 85 181
e 85 188
e 85 189
e 85 193
e 85 194
e 85 195
e 85 197
e 85 199
e 86 87
e 86 89
e 86 90
e 86 98
e 86 100
e 86 101
e 86 104
e 86 105
e 86 107
e 86 108
e 86 111
e 86 115
e 86 119
e 86 131
e 86 141
e 86 142
e 86 147
e 86 154
e 86 157
e 86 159
e 86 160
e 86 168
e 86 169
e 86 177
e 86 180
e 86 195
e 86 196
e 87 90
e 87 91
e 87 94
e 87 95
e 87 102
e 87 104
e 87 107
e 87 111
e 87 113
e 87 114
e 87 115
e 87 116
e 87 124
e 87 138
e 87 141
e 87 150
e 87 153
e 87 157
e 87 160
e 87 165
e 87 167
e 87 172
e 87 178
e 87 186
e 87 189
e 87 190
e 87 192
e 87 196
e 88 89
e 88 99
e 88 104
e 88 106
e 88 108
e 88 110
e 88 113
e 88 114
e 88 117
e 88 120
e 88 121
e 88 122
e 88 134
e 88 139
e 88 149
e 88 156
e 88 167
e 88 168
e 88 169
e 88 183
e 88 187
e 88 200
e 89 99
e 89 100
e 89 105
e 89 121
e 89 125
e 89 130
e 89 138
e 89 150
e 89 153
e 89 161
e 89 167
e 89 169
e 89 173
e 89 179
e 89 180
e 89 181
e 89 183
e 89 185
e 89 192
e 89 195
e 89 196
e 90 93
e 90 94
e 90 97
e 90 107
e 90 113
e 90 126
e 90 128
e 90 132
e 90 135
e 90 136
e 90 137
e 90 141
e 90 153
e 90 156
e 90 158
e 90 159
e 90 165
e 90 166
e 90 169
e 90 173
e 90 178
e 90 181
e 90 182
e 90 196
e 91 94
e 91 96
e 91 97
e 91 103
e 91 104
e 91 106
e 91 109
e 91 110
e 91 113
e 91 122
e 91 127
e 91 128
e 91 138
e 91 140
e 91 142
e 91 143
e 91 152
e 91 153
e 91 156
e 91 158
e 91 164
e 91 165
e 91 168
e 91 184
e 91 186
e 91 190
e 92 93
e 92 95
e 92 106
e 92 113
e 92 118
e 92 122
e 92 127
e 92 134
e 92 145
e 92 149
e 92 152
e 92 153
e 92 164
e 92 178
e 92 183
e 92 191
e 93 102
e 93 103
e 93 110
e 93 111
e 93 127
e 93 128
e 93 133
e 93 151
e 93 161
e 93 166
e 93 169
e 93 178
e 93 184
e 93 188
e 93 195
e 94 95
e 94 100
e 94 109
e 94 114
e 94 117
e 94 118
e 94 120
e 94 121
e 94 126
e 94 127
e 94 129
e 94 131
e 94 138
e 94 141
e 94 143
e 94 153
e 94 160
e 94 169
e 94 173
e 94 176
e 94 186
e 94 195
e 95 97
e 95 98
e 95 106
e 95 107
e 95 122
e 95 125
e 95 128
e 95 130
e 95 131
e 95 133
e 95 134
e 95 138
e 95 141
e 95 144
e 95 152
e 95 153
e 95 155
e 95 164
e 95 173
e 95 174
e 95 176
e 95 178
e 95 181
e 95 188
e 95 191
e 95 197
e 95 199
e 96 104
e 96 108
e 96 110
e 96 122
e 96 123
e 96 126
e 96 127
e 96 137
e 96 144
e 96 146
e 96 153
e 96 154
e 96 157
e 96 158
e 96 164
e 96 165
e 96 170
e 96 171
e 96 173
e 96 174
e 96 175
e 97 103
e 97 107
e 97 120
e 97 123
e 97 130
e 97 138
e 97 142
e 97 145
e 97 148
e 97 154
e 97 166
e 97 167
e 97 173
e 97 174
e 97 178
e 97 181
e 97 188
e 97 189
e 97 193
e 97 194
e 97 198
e 98 106
e 98 120
e 98 123
e 98 128
e 98 141
e 98 148
e 98 151
e 98 153
e 98 157
e 98 159
e 98 162
e 98 164
e 98 172
e 98 182
e 98 183
e 98 190
e 98 191
e 99 100
e 99 115
e 99 117
e 99 120
e 99 121
e 99 122
e 99 125
e 99 132
e 99 143
e 99 144
e 99 154
e 99 157
e 99 161
e 99 164
e 99 165
e 99 166
e 99 171
e 99 183
e 99 187
e 99 194
e 99 195
e 99 196
e 100 102
e 100 109
e 100 110
e 100 112
e 100 119
e 100 120
e 100 141
e 100 143
e 100 147
e 100 154
e 100 156
e 100 157
e 100 165
e 100 172
e 100 180
e 100 189
e 100 190
e 100 193
e 100 194
e 101 106
e 101 108
e 101 111
e 101 119
e 101 123
e 101 132
e 101 147
e 101 152
e 101 153
e 101 167
e 101 173
e 101 174
e 101 176
e 101 179
e 101 181
e 101 183
e 101 186
e 101 198
e 101 199
e 101 200
e 102 108
e 102 109
e 102 121
e 102 134
e 102 138
e 102 140
e 102 142
e 102 144
e 102 146
e 102 147
e 102 149
e 102 150
e 102 151
e 102 156
e 102 162
e 102 168
e 102 181
e 102 185
e 102 194
e 103 106
e 103 110
e 103 113
e 103 116
e 103 119
e 103 128
e 103 129
e 103 130
e 103 131
e 103 145
e 103 148
e 103 153
e 103 164
e 103 168
e 103 175
e 103 178
e 103 187
e 103 189
e 103 197
e 104 109
e 104 117
e 104 124
e 104 127
e 104 129
e 104 135
e 104 136
e 104 137
e 104 145
e 104 146
e 104 148
e 104 159
e 104 161
e 104 175
e 104 177
e 104 183
e 104 193
e 104 198
e 104 199
e 105 106
e 105 108
e 105 109
e 105 117
e 105 119
e 105 121
e 105 127
e 105 128
e 105 129
e 105 134
e 105 135
e 105 143
e 105 146
e 105 149
e 105 155
e 105 157
e 105 168
e 105 173
e 105 174
e 105 180
e 105 182
e 105 185
e 105 191
e 105 193
e 106 113
e 106 116
e 106 122
e 106 126
e 106 135
e 106 142
e 106 149
e 106 150
e 106 162
e 106 166
e 106 169
e 106 189
e 106 194
e 106 197
e 107 108
e 107 113
e 107 117
e 107 122
e 107 129
e 107 133
e 107 137
e 107 138
e 107 140
e 107 143
e 107 146
e 107 150
e 107 153
e 107 159
e 107 161
e 107 165
e 107 166
e 107 174
e 107 189
e 107 192
e 107 193
e 107 195
e 108 121
e 108 128
e 108 132
e 108 138
e 108 139
e 108 141
e 108 142
e 108 148
e 108 154
e 108 157
e 108 162
e 108 173
e 108 176
e 108 184
e 108 190
e 108 193
e 108 200
e 109 110
e 109 113
e 109 120
e 109 127
e 109 129
e 109 135
e 109 143
e 109 144
e 109 145
e 109 147
e 109 154
e 109 161
e 109 171
e 109 173
e 109 184
e 109 189
e 109 195
e 109 200
e 110 120
e 110 122
e 110 123
e 110 126
e 110 133
e 110 139
e 110 145
e 110 147
e 110 149
e 110 151
e 110 156
e 110 163
e 110 167
e 110 178
e 110 179
e 110 181
e 110 187
e 110 189
e 110 191
e 110 197
e 110 199
e 111 115
e 111 122
e 111 123
e 111 125
e 111 128
e 111 130
e 111 132
e 111 143
e 111 145
e 111 149
e 111 156
e 111 160
e 111 161
e 111 164
e 111 174
e 111 185
e 111 193
e 111 195
e 112 113
e 112 115
e 112 117
e 112 119
e 112 122
e 112 136
e 112 153
e 112 156
e 112 161
e 112 166
e 112 169
e 112 175
e 112 186
e 112 191
e 112 192
e 112 197
e 113 117
e 113 118
e 113 121
e 113 124
e 113 130
e 113 132
e 113 133
e 113 134
e 113 136
e 113 140
e 113 148
e 113 152
e 113 156
e 113 157
e 113 159
e 113 161
e 113 166
e 113 169
e 113 172
e 113 188
e 113 190
e 113 197
e 113 200
e 114 116
e 114 131
e 114 135
e 114 140
e 114 154
e 114 157
e 114 161
e 114 164
e 114 169
e 114 172
e 114 173
e 114 175
e 114 183
e 114 198
e 115 122
e 115 136
e 115 158
e 115 160
e 115 164
e 115 169
e 115 173
e 115 174
e 115 175
e 115 182
e 115 185
e 116 118
e 116 137
e 116 142
e 116 143
e 116 151
e 116 157
e 116 176
e 116 177
e 116 178
e 116 179
e 116 181
e 116 189
e 116 197
e 117 121
e 117 125
e 117 128
e 117 130
e 117 140
e 117 146
e 117 149
e 117 150
e 117 151
e 117 163
e 117 164
e 117 175
e 117 176
e 117 177
e 117 180
e 117 181
e 117 185
e 117 189
e 117 191
e 117 192
e 117 194
e 118 122
e 118 123
e 118 128
e 118 130
e 118 133
e 118 134
e 118 143
e 118 151
e 118 156
e 118 170
e 118 176
e 118 177
e 118 186
e 118 197
e 119 121
e 119 125
e 119 131
e 119 135
e 119 136
e 119 137
e 119 140
e 119 146
e 119 149
e 119 151
e 119 155
e 119 157
e 119 165
e 119 170
e 119 171
e 119 177
e 119 179
e 119 195
e 119 196
e 120 121
e 120 122
e 120 133
e 120 138
e 120 141
e 120 153
e 120 177
e 120 178
e 120 180
e 120 188
e 120 190
e 120 193
e 120 197
e 120 198
e 121 141
e 121 144
e 121 145
e 121 147
e 121 148
e 121 149
e 121 153
e 121 156
e 121 159
e 121 160
e 121 168
e 121 176
e 121 178
e 121 180
e 121 184
e 121 195
e 121 197
e 122 123
e 122 130
e 122 133
e 122 136
e 122 142
e 122 144
e 122 146
e 122 151
e 122 154
e 122 155
e 122 159
e 122 163
e 122 164
e 122 175
e 122 188
e 122 199
e 123 132
e 123 142
e 123 144
e 123 145
e 123 149
e 123 150
e 123 159
e 123 162
e 123 167
e 123 168
e 123 169
e 123 170
e 123 172
e 123 177
e 123 182
e 123 184
e 123 192
e 123 197
e 124 130
e 124 144
e 124 148
e 124 151
e 124 155
e 124 162
e 124 165
e 124 170
e 124 178
e 124 179
e 124 181
e 124 194
e 124 199
e 125 128
e 125 132
e 125 133
e 125 144
e 125 159
e 125 160
e 125 182
e 125 188
e 126 130
e 126 136
e 126 147
e 126 151
e 126 157
e 126 158
e 126 161
e 126 163
e 126 170
e 126 179
e 126 183
e 126 192
e 126 193
e 126 199
e 127 131
e 127 133
e 127 136
e 127 138
e 127 141
e 127 145
e 127 148
e 127 157
e 127 162
e 127 163
e 127 164
e 127 166
e 127 173
e 127 182
e 127 184
e 127 185
e 127 191
e 127 194
e 128 129
e 128 130
e 128 132
e 128 133
e 128 137
e 128 141
e 128 143
e 128 159
e 128 167
e 128 176
e 128 180
e 128 183
e 128 188
e 128 191
e 128 195
e 128 196
e 128 197
e 128 200
e 129 132
e 129 136
e 129 144
e 129 148
e 129 165
e 129 167
e 129 172
e 129 176
e 129 177
e 129 182
e 129 191
e 129 200
e 130 139
e 130 143
e 130 145
e 130 146
e 130 148
e 130 160
e 130 173
e 130 185
e 130 192
e 131 145
e 131 150
e 131 165
e 131 172
e 131 179
e 131 188
e 131 192
e 131 193
e 131 199
e 132 143
e 132 153
e 132 168
e 132 170
e 132 171
e 132 178
e 132 180
e 132 188
e 132 190
e 132 191
e 132 195
e 132 196
e 132 200
e 133 136
e 133 139
e 133 143
e 133 148
e 133 150
e 133 153
e 133 154
e 133 164
e 133 172
e 133 174
e 133 175
e 133 183
e 133 185
e 133 188
e 133 192
e 133 198
e 134 135
e 134 144
e 134 148
e 134 151
e 134 153
e 134 154
e 134 155
e 134 161
e 134 163
e 134 165
e 134 172
e 134 175
e 134 183
e 134 185
e 134 186
e 134 189
e 135 144
e 135 150
e 135 152
e 135 157
e 135 159
e 135 164
e 135 171
e 135 182
e 135 195
e 136 148
e 136 155
e 136 164
e 136 170
e 136 181
e 136 184
e 136 185
e 136 194
e 137 143
e 137 150
e 137 157
e 137 161
e 137 162
e 137 168
e 137 169
e 137 170
e 137 178
e 137 181
e 137 184
e 137 189
e 137 196
e 137 199
e 138 151
e 138 154
e 138 156
e 138 157
e 138 163
e 138 168
e 138 170
e 138 172
e 138 181
e 138 183
e 138 185
e 138 192
e 138 196
e 139 141
e 139 143
e 139 145
e 139 154
e 139 156
e 139 159
e 139 177
e 139 180
e 139 182
e 139 183
e 139 192
e 139 196
e 139 199
e 140 145
e 140 149
e 140 150
e 140 160
e 140 165
e 140 166
e 140 170
e 140 173
e 140 179
e 140 182
e 140 184
e 140 186
e 140 191
e 140 195
e 141 142
e 141 146
e 141 147
e 141 154
e 141 178
e 141 179
e 141 180
e 141 187
e 141 194
e 141 197
e 142 149
e 142 157
e 142 167
e 142 182
e 142 188
e 142 189
e 142 194
e 142 196
e 143 144
e 143 146
e 143 147
e 143 148
e 143 154
e 143 162
e 143 168
e 143 177
e 143 188
e 143 190
e 143 192
e 143 193
e 143 198
e 144 149
e 144 150
e 144 152
e 144 159
e 144 160
e 144 165
e 144 169
e 144 171
e 144 180
e 144 183
e 144 184
e 144 190
e 144 198
e 144 200
e 145 146
e 145 149
e 145 153
e 145 160
e 145 175
e 145 177
e 145 191
e 145 192
e 145 193
e 145 194
e 145 198
e 146 152
e 146 153
e 146 156
e 146 159
e 146 164
e 146 168
e 146 169
e 146 182
e 146 190
e 146 194
e 147 148
e 147 149
e 147 151
e 147 156
e 147 161
e 147 163
e 147 166
e 147 177
e 147 187
e 147 193
e 147 195
e 147 196
e 147 198
e 148 149
e 148 153
e 148 162
e 148 163
e 148 172
e 148 173
e 148 176
e 148 177
e 148 179
e 148 182
e 148 187
e 148 189
e 148 190
e 148 194
e 148 197
e 148 199
e 149 156
e 149 160
e 149 163
e 149 164
e 149 167
e 149 172
e 149 184
e 149 192
e 149 194
e 149 196
e 150 156
e 150 158
e 150 162
e 150 167
e 150 168
e 150 176
e 150 183
e 150 188
e 150 200
e 151 156
e 151 158
e 151 162
e 151 174
e 151 176
e 151 177
e 151 179
e 151 193
e 152 156
e 152 158
e 152 164
e 152 176
e 152 179
e 152 182
e 152 185
e 153 155
e 153 156
e 153 163
e 153 169
e 153 174
e 153 180
e 153 185
e 153 189
e 153 196
e 153 197
e 153 199
e 154 155
e 154 156
e 154 157
e 154 160
e 154 172
e 154 174
e 154 175
e 154 176
e 154 179
e 154 181
e 154 184
e 154 187
e 154 190
e 154 200
e 155 163
e 155 164
e 155 173
e 155 184
e 155 187
e 155 190
e 156 163
e 156 166
e 156 175
e 156 184
e 156 185
e 156 186
e 156 198
e 157 162
e 157 171
e 157 173
e 157 178
e 157 179
e 157 180
e 157 191
e 157 192
e 157 196
e 157 199
e 158 163
e 158 183
e 158 186
e 158 187
e 158 193
e 158 196
e 159 165
e 159 173
e 159 174
e 159 181
e 159 183
e 159 185
e 159 196
e 159 198
e 160 161
e 160 163
e 160 191
e 160 194
e 160 196
e 160 197
e 161 171
e 161 172
e 161 180
e 161 190
e 161 196
e 161 198
e 162 166
e 162 168
e 162 177
e 162 180
e 162 181
e 162 188
e 162 190
e 162 199
e 163 167
e 163 174
e 163 175
e 163 179
e 163 187
e 163 189
e 163 198
e 163 199
e 164 165
e 164 168
e 164 174
e 164 175
e 165 175
e 165 177
e 165 179
e 165 184
e 165 185
e 165 188
e 165 195
e 165 199
e 166 169
e 166 170
e 166 171
e 166 174
e 166 176
e 166 178
e 166 184
e 166 193
e 166 200
e 167 171
e 167 172
e 167 176
e 167 179
e 167 183
e 168 169
e 168 171
e 168 175
e 168 178
e 168 180
e 168 183
e 168 189
e 169 170
e 169 171
e 169 185
e 169 190
e 169 195
e 170 173
e 170 176
e 170 178
e 170 182
e 170 184
e 170 185
e 170 193
e 170 195
e 171 174
e 171 175
e 171 176
e 171 190
e 171 192
e 171 194
e 171 198
e 172 174
e 172 199
e 172 200
e 173 182
e 173 184
e 173 186
e 173 188
e 173 191
e 173 193
e 174 180
e 174 183
e 174 185
e 174 188
e 174 189
e 174 193
e 174 194
e 175 180
e 175 181
e 175 185
e 175 189
e 175 195
e 175 196
e 175 197
e 175 199
e 176 179
e 176 192
e 176 194
e 176 196
e 176 197
e 177 178
e 177 179
e 177 183
e 177 193
e 177 195
e 177 200
e 178 179
e 178 185
e 178 187
e 178 189
e 178 199
e 179 185
e 179 192
e 179 197
e 180 186
e 180 189
e 180 193
e 181 192
e 181 193
e 181 196
e 181 197
e 181 200
e 182 183
e 182 187
e 182 188
e 182 192
e 182 197
e 182 200
e 183 184
e 183 191
e 183 198
e 183 199
e 184 189
e 184 193
e 185 191
e 185 194
e 185 197
e 186 193
e 186 194
e 187 189
e 187 192
e 187 193
e 187 194
e 188 191
e 188 194
e 188 195
e 188 199
e 188 200
e 189 190
e 189 194
e 189 195
e 190 192
e 190 193
e 193 200
e 194 196
e 196 198
e 197 200
